p wcnf 469 1516
w -2 0.367879 0
w 2 2.718282 0
w -3 0.367879 0
w 3 2.718282 0
w -4 0.367879 0
w 4 2.718282 0
w -5 0.367879 0
w 5 2.718282 0
w -6 0.367879 0
w 6 2.718282 0
w -7 0.367879 0
w 7 2.718282 0
w -9 0.367879 0
w 9 2.718282 0
w -10 0.367879 0
w 10 2.718282 0
w -11 0.367879 0
w 11 2.718282 0
w -12 0.367879 0
w 12 2.718282 0
w -13 0.367879 0
w 13 2.718282 0
w -14 0.367879 0
w 14 2.718282 0
w -15 0.367879 0
w 15 2.718282 0
w -16 0.367879 0
w 16 2.718282 0
w -17 0.367879 0
w 17 2.718282 0
w -19 0.367879 0
w 19 2.718282 0
w -20 0.367879 0
w 20 2.718282 0
w -21 0.367879 0
w 21 2.718282 0
w -22 0.367879 0
w 22 2.718282 0
w -23 0.367879 0
w 23 2.718282 0
w -24 0.367879 0
w 24 2.718282 0
w -25 0.367879 0
w 25 2.718282 0
w -26 0.367879 0
w 26 2.718282 0
w -27 0.367879 0
w 27 2.718282 0
w -28 0.367879 0
w 28 2.718282 0
w -29 0.367879 0
w 29 2.718282 0
w -30 0.367879 0
w 30 2.718282 0
w -32 0.367879 0
w 32 2.718282 0
w -33 0.367879 0
w 33 2.718282 0
w -34 0.367879 0
w 34 2.718282 0
w -35 0.367879 0
w 35 2.718282 0
w -36 0.367879 0
w 36 2.718282 0
w -37 0.367879 0
w 37 2.718282 0
w -38 0.367879 0
w 38 2.718282 0
w -39 0.367879 0
w 39 2.718282 0
w -40 0.367879 0
w 40 2.718282 0
w -41 0.367879 0
w 41 2.718282 0
w -42 0.367879 0
w 42 2.718282 0
w -43 0.367879 0
w 43 2.718282 0
w -44 0.367879 0
w 44 2.718282 0
w -45 0.367879 0
w 45 2.718282 0
w -46 0.367879 0
w 46 2.718282 0
w -48 0.367879 0
w 48 2.718282 0
w -49 0.367879 0
w 49 2.718282 0
w -50 0.367879 0
w 50 2.718282 0
w -51 0.367879 0
w 51 2.718282 0
w -52 0.367879 0
w 52 2.718282 0
w -53 0.367879 0
w 53 2.718282 0
w -54 0.367879 0
w 54 2.718282 0
w -55 0.367879 0
w 55 2.718282 0
w -56 0.367879 0
w 56 2.718282 0
w -57 0.367879 0
w 57 2.718282 0
w -58 0.367879 0
w 58 2.718282 0
w -60 0.367879 0
w 60 2.718282 0
w -61 0.367879 0
w 61 2.718282 0
w -62 0.367879 0
w 62 2.718282 0
w -63 0.367879 0
w 63 2.718282 0
w -64 0.367879 0
w 64 2.718282 0
w -65 0.367879 0
w 65 2.718282 0
w -66 0.367879 0
w 66 2.718282 0
w -68 0.367879 0
w 68 2.718282 0
w -69 0.367879 0
w 69 2.718282 0
w -70 0.367879 0
w 70 2.718282 0
w -71 0.367879 0
w 71 2.718282 0
w -72 0.367879 0
w 72 2.718282 0
w -73 0.367879 0
w 73 2.718282 0
w -74 0.367879 0
w 74 2.718282 0
w -75 0.367879 0
w 75 2.718282 0
w -76 0.367879 0
w 76 2.718282 0
w -78 0.367879 0
w 78 2.718282 0
w -79 0.367879 0
w 79 2.718282 0
w -80 0.367879 0
w 80 2.718282 0
w -81 0.367879 0
w 81 2.718282 0
w -82 0.367879 0
w 82 2.718282 0
w -83 0.367879 0
w 83 2.718282 0
w -84 0.367879 0
w 84 2.718282 0
w -85 0.367879 0
w 85 2.718282 0
w -87 0.367879 0
w 87 2.718282 0
w -88 0.367879 0
w 88 2.718282 0
w -89 0.367879 0
w 89 2.718282 0
w -90 0.367879 0
w 90 2.718282 0
w -91 0.367879 0
w 91 2.718282 0
w -92 0.367879 0
w 92 2.718282 0
w -93 0.367879 0
w 93 2.718282 0
w -94 0.367879 0
w 94 2.718282 0
w -95 0.367879 0
w 95 2.718282 0
w -96 0.367879 0
w 96 2.718282 0
w -97 0.367879 0
w 97 2.718282 0
w -98 0.367879 0
w 98 2.718282 0
w -100 0.367879 0
w 100 2.718282 0
w -101 0.367879 0
w 101 2.718282 0
w -102 0.367879 0
w 102 2.718282 0
w -103 0.367879 0
w 103 2.718282 0
w -104 0.367879 0
w 104 2.718282 0
w -105 0.367879 0
w 105 2.718282 0
w -107 0.367879 0
w 107 2.718282 0
w -108 0.367879 0
w 108 2.718282 0
w -109 0.367879 0
w 109 2.718282 0
w -110 0.367879 0
w 110 2.718282 0
w -111 0.367879 0
w 111 2.718282 0
w -112 0.367879 0
w 112 2.718282 0
w -113 0.367879 0
w 113 2.718282 0
w -114 0.367879 0
w 114 2.718282 0
w -115 0.367879 0
w 115 2.718282 0
w -117 0.367879 0
w 117 2.718282 0
w -118 0.367879 0
w 118 2.718282 0
w -119 0.367879 0
w 119 2.718282 0
w -120 0.367879 0
w 120 2.718282 0
w -121 0.367879 0
w 121 2.718282 0
w -122 0.367879 0
w 122 2.718282 0
w -123 0.367879 0
w 123 2.718282 0
w -124 0.367879 0
w 124 2.718282 0
w -125 0.367879 0
w 125 2.718282 0
w -126 0.367879 0
w 126 2.718282 0
w -127 0.367879 0
w 127 2.718282 0
w -129 0.367879 0
w 129 2.718282 0
w -130 0.367879 0
w 130 2.718282 0
w -131 0.367879 0
w 131 2.718282 0
w -132 0.367879 0
w 132 2.718282 0
w -133 0.367879 0
w 133 2.718282 0
w -134 0.367879 0
w 134 2.718282 0
w -136 0.367879 0
w 136 2.718282 0
w -137 0.367879 0
w 137 2.718282 0
w -138 0.367879 0
w 138 2.718282 0
w -139 0.367879 0
w 139 2.718282 0
w -141 0.367879 0
w 141 2.718282 0
w -142 0.367879 0
w 142 2.718282 0
w -143 0.367879 0
w 143 2.718282 0
w -144 0.367879 0
w 144 2.718282 0
w -145 0.367879 0
w 145 2.718282 0
w -146 0.367879 0
w 146 2.718282 0
w -147 0.367879 0
w 147 2.718282 0
w -148 0.367879 0
w 148 2.718282 0
w -149 0.367879 0
w 149 2.718282 0
w -151 0.367879 0
w 151 2.718282 0
w -152 0.367879 0
w 152 2.718282 0
w -153 0.367879 0
w 153 2.718282 0
w -154 0.367879 0
w 154 2.718282 0
w -155 0.367879 0
w 155 2.718282 0
w -156 0.367879 0
w 156 2.718282 0
w -157 0.367879 0
w 157 2.718282 0
w -159 0.367879 0
w 159 2.718282 0
w -160 0.367879 0
w 160 2.718282 0
w -161 0.367879 0
w 161 2.718282 0
w -162 0.367879 0
w 162 2.718282 0
w -163 0.367879 0
w 163 2.718282 0
w -164 0.367879 0
w 164 2.718282 0
w -165 0.367879 0
w 165 2.718282 0
w -166 0.367879 0
w 166 2.718282 0
w -167 0.367879 0
w 167 2.718282 0
w -168 0.367879 0
w 168 2.718282 0
w -170 0.367879 0
w 170 2.718282 0
w -171 0.367879 0
w 171 2.718282 0
w -172 0.367879 0
w 172 2.718282 0
w -173 0.367879 0
w 173 2.718282 0
w -174 0.367879 0
w 174 2.718282 0
w -175 0.367879 0
w 175 2.718282 0
w -176 0.367879 0
w 176 2.718282 0
w -177 0.367879 0
w 177 2.718282 0
w -178 0.367879 0
w 178 2.718282 0
w -179 0.367879 0
w 179 2.718282 0
w -180 0.367879 0
w 180 2.718282 0
w -181 0.367879 0
w 181 2.718282 0
w -183 0.367879 0
w 183 2.718282 0
w -184 0.367879 0
w 184 2.718282 0
w -185 0.367879 0
w 185 2.718282 0
w -186 0.367879 0
w 186 2.718282 0
w -188 0.367879 0
w 188 2.718282 0
w -189 0.367879 0
w 189 2.718282 0
w -190 0.367879 0
w 190 2.718282 0
w -191 0.367879 0
w 191 2.718282 0
w -193 0.367879 0
w 193 2.718282 0
w -194 0.367879 0
w 194 2.718282 0
w -195 0.367879 0
w 195 2.718282 0
w -196 0.367879 0
w 196 2.718282 0
w -197 0.367879 0
w 197 2.718282 0
w -198 0.367879 0
w 198 2.718282 0
w -199 0.367879 0
w 199 2.718282 0
w -200 0.367879 0
w 200 2.718282 0
w -201 0.367879 0
w 201 2.718282 0
w -203 0.367879 0
w 203 2.718282 0
w -204 0.367879 0
w 204 2.718282 0
w -205 0.367879 0
w 205 2.718282 0
w -206 0.367879 0
w 206 2.718282 0
w -207 0.367879 0
w 207 2.718282 0
w -209 0.367879 0
w 209 2.718282 0
w -210 0.367879 0
w 210 2.718282 0
w -211 0.367879 0
w 211 2.718282 0
w -212 0.367879 0
w 212 2.718282 0
w -213 0.367879 0
w 213 2.718282 0
w -214 0.367879 0
w 214 2.718282 0
w -215 0.367879 0
w 215 2.718282 0
w -216 0.367879 0
w 216 2.718282 0
w -218 0.367879 0
w 218 2.718282 0
w -219 0.367879 0
w 219 2.718282 0
w -221 0.367879 0
w 221 2.718282 0
w -222 0.367879 0
w 222 2.718282 0
w -223 0.367879 0
w 223 2.718282 0
w -224 0.367879 0
w 224 2.718282 0
w -225 0.367879 0
w 225 2.718282 0
w -227 0.367879 0
w 227 2.718282 0
w -228 0.367879 0
w 228 2.718282 0
w -229 0.367879 0
w 229 2.718282 0
w -230 0.367879 0
w 230 2.718282 0
w -232 0.367879 0
w 232 2.718282 0
w -233 0.367879 0
w 233 2.718282 0
w -234 0.367879 0
w 234 2.718282 0
w -235 0.367879 0
w 235 2.718282 0
w -236 0.367879 0
w 236 2.718282 0
w -237 0.367879 0
w 237 2.718282 0
w -238 0.367879 0
w 238 2.718282 0
w -239 0.367879 0
w 239 2.718282 0
w -240 0.367879 0
w 240 2.718282 0
w -242 0.367879 0
w 242 2.718282 0
w -243 0.367879 0
w 243 2.718282 0
w -245 0.367879 0
w 245 2.718282 0
w -246 0.367879 0
w 246 2.718282 0
w -247 0.367879 0
w 247 2.718282 0
w -248 0.367879 0
w 248 2.718282 0
w -249 0.367879 0
w 249 2.718282 0
w -250 0.367879 0
w 250 2.718282 0
w -251 0.367879 0
w 251 2.718282 0
w -253 0.367879 0
w 253 2.718282 0
w -254 0.367879 0
w 254 2.718282 0
w -255 0.367879 0
w 255 2.718282 0
w -257 0.367879 0
w 257 2.718282 0
w -258 0.367879 0
w 258 2.718282 0
w -259 0.367879 0
w 259 2.718282 0
w -260 0.367879 0
w 260 2.718282 0
w -261 0.367879 0
w 261 2.718282 0
w -262 0.367879 0
w 262 2.718282 0
w -264 0.367879 0
w 264 2.718282 0
w -265 0.367879 0
w 265 2.718282 0
w -266 0.367879 0
w 266 2.718282 0
w -267 0.367879 0
w 267 2.718282 0
w -268 0.367879 0
w 268 2.718282 0
w -269 0.367879 0
w 269 2.718282 0
w -270 0.367879 0
w 270 2.718282 0
w -271 0.367879 0
w 271 2.718282 0
w -273 0.367879 0
w 273 2.718282 0
w -274 0.367879 0
w 274 2.718282 0
w -275 0.367879 0
w 275 2.718282 0
w -276 0.367879 0
w 276 2.718282 0
w -277 0.367879 0
w 277 2.718282 0
w -278 0.367879 0
w 278 2.718282 0
w -279 0.367879 0
w 279 2.718282 0
w -281 0.367879 0
w 281 2.718282 0
w -282 0.367879 0
w 282 2.718282 0
w -283 0.367879 0
w 283 2.718282 0
w -284 0.367879 0
w 284 2.718282 0
w -285 0.367879 0
w 285 2.718282 0
w -287 0.367879 0
w 287 2.718282 0
w -288 0.367879 0
w 288 2.718282 0
w -289 0.367879 0
w 289 2.718282 0
w -291 0.367879 0
w 291 2.718282 0
w -292 0.367879 0
w 292 2.718282 0
w -293 0.367879 0
w 293 2.718282 0
w -295 0.367879 0
w 295 2.718282 0
w -296 0.367879 0
w 296 2.718282 0
w -297 0.367879 0
w 297 2.718282 0
w -298 0.367879 0
w 298 2.718282 0
w -300 0.367879 0
w 300 2.718282 0
w -301 0.367879 0
w 301 2.718282 0
w -302 0.367879 0
w 302 2.718282 0
w -303 0.367879 0
w 303 2.718282 0
w -304 0.367879 0
w 304 2.718282 0
w -305 0.367879 0
w 305 2.718282 0
w -306 0.367879 0
w 306 2.718282 0
w -307 0.367879 0
w 307 2.718282 0
w -308 0.367879 0
w 308 2.718282 0
w -310 0.367879 0
w 310 2.718282 0
w -311 0.367879 0
w 311 2.718282 0
w -312 0.367879 0
w 312 2.718282 0
w -313 0.367879 0
w 313 2.718282 0
w -314 0.367879 0
w 314 2.718282 0
w -316 0.367879 0
w 316 2.718282 0
w -317 0.367879 0
w 317 2.718282 0
w -318 0.367879 0
w 318 2.718282 0
w -319 0.367879 0
w 319 2.718282 0
w -320 0.367879 0
w 320 2.718282 0
w -321 0.367879 0
w 321 2.718282 0
w -323 0.367879 0
w 323 2.718282 0
w -324 0.367879 0
w 324 2.718282 0
w -325 0.367879 0
w 325 2.718282 0
w -328 0.367879 0
w 328 2.718282 0
w -329 0.367879 0
w 329 2.718282 0
w -330 0.367879 0
w 330 2.718282 0
w -331 0.367879 0
w 331 2.718282 0
w -332 0.367879 0
w 332 2.718282 0
w -333 0.367879 0
w 333 2.718282 0
w -335 0.367879 0
w 335 2.718282 0
w -336 0.367879 0
w 336 2.718282 0
w -337 0.367879 0
w 337 2.718282 0
w -338 0.367879 0
w 338 2.718282 0
w -339 0.367879 0
w 339 2.718282 0
w -341 0.367879 0
w 341 2.718282 0
w -342 0.367879 0
w 342 2.718282 0
w -343 0.367879 0
w 343 2.718282 0
w -344 0.367879 0
w 344 2.718282 0
w -346 0.367879 0
w 346 2.718282 0
w -347 0.367879 0
w 347 2.718282 0
w -348 0.367879 0
w 348 2.718282 0
w -349 0.367879 0
w 349 2.718282 0
w -350 0.367879 0
w 350 2.718282 0
w -352 0.367879 0
w 352 2.718282 0
w -353 0.367879 0
w 353 2.718282 0
w -354 0.367879 0
w 354 2.718282 0
w -355 0.367879 0
w 355 2.718282 0
w -357 0.367879 0
w 357 2.718282 0
w -358 0.367879 0
w 358 2.718282 0
w -359 0.367879 0
w 359 2.718282 0
w -360 0.367879 0
w 360 2.718282 0
w -361 0.367879 0
w 361 2.718282 0
w -362 0.367879 0
w 362 2.718282 0
w -363 0.367879 0
w 363 2.718282 0
w -365 0.367879 0
w 365 2.718282 0
w -366 0.367879 0
w 366 2.718282 0
w -367 0.367879 0
w 367 2.718282 0
w -369 0.367879 0
w 369 2.718282 0
w -370 0.367879 0
w 370 2.718282 0
w -371 0.367879 0
w 371 2.718282 0
w -373 0.367879 0
w 373 2.718282 0
w -375 0.367879 0
w 375 2.718282 0
w -376 0.367879 0
w 376 2.718282 0
w -377 0.367879 0
w 377 2.718282 0
w -379 0.367879 0
w 379 2.718282 0
w -380 0.367879 0
w 380 2.718282 0
w -381 0.367879 0
w 381 2.718282 0
w -382 0.367879 0
w 382 2.718282 0
w -383 0.367879 0
w 383 2.718282 0
w -384 0.367879 0
w 384 2.718282 0
w -385 0.367879 0
w 385 2.718282 0
w -387 0.367879 0
w 387 2.718282 0
w -388 0.367879 0
w 388 2.718282 0
w -389 0.367879 0
w 389 2.718282 0
w -391 0.367879 0
w 391 2.718282 0
w -393 0.367879 0
w 393 2.718282 0
w -394 0.367879 0
w 394 2.718282 0
w -396 0.367879 0
w 396 2.718282 0
w -397 0.367879 0
w 397 2.718282 0
w -399 0.367879 0
w 399 2.718282 0
w -400 0.367879 0
w 400 2.718282 0
w -401 0.367879 0
w 401 2.718282 0
w -403 0.367879 0
w 403 2.718282 0
w -405 0.367879 0
w 405 2.718282 0
w -406 0.367879 0
w 406 2.718282 0
w -408 0.367879 0
w 408 2.718282 0
w -410 0.367879 0
w 410 2.718282 0
w -412 0.367879 0
w 412 2.718282 0
w -413 0.367879 0
w 413 2.718282 0
w -415 0.367879 0
w 415 2.718282 0
w -417 0.367879 0
w 417 2.718282 0
w -418 0.367879 0
w 418 2.718282 0
w -419 0.367879 0
w 419 2.718282 0
w -421 0.367879 0
w 421 2.718282 0
w -422 0.367879 0
w 422 2.718282 0
w -424 0.367879 0
w 424 2.718282 0
w -427 0.367879 0
w 427 2.718282 0
w -428 0.367879 0
w 428 2.718282 0
w -430 0.367879 0
w 430 2.718282 0
w -432 0.367879 0
w 432 2.718282 0
w -434 0.367879 0
w 434 2.718282 0
w -435 0.367879 0
w 435 2.718282 0
w -436 0.367879 0
w 436 2.718282 0
w -437 0.367879 0
w 437 2.718282 0
w -439 0.367879 0
w 439 2.718282 0
w -440 0.367879 0
w 440 2.718282 0
w -441 0.367879 0
w 441 2.718282 0
w -442 0.367879 0
w 442 2.718282 0
w -444 0.367879 0
w 444 2.718282 0
w -445 0.367879 0
w 445 2.718282 0
w -448 0.367879 0
w 448 2.718282 0
w -450 0.367879 0
w 450 2.718282 0
w -451 0.367879 0
w 451 2.718282 0
w -454 0.367879 0
w 454 2.718282 0
w -456 0.367879 0
w 456 2.718282 0
w -458 0.367879 0
w 458 2.718282 0
w -459 0.367879 0
w 459 2.718282 0
w -467 0.367879 0
w 467 2.718282 0
2 1 106 0
2 -1 -106 0
-2 1 -106 0
-2 -1 106 0
3 1 187 0
3 -1 -187 0
-3 1 -187 0
-3 -1 187 0
4 1 192 0
4 -1 -192 0
-4 1 -192 0
-4 -1 192 0
5 1 272 0
5 -1 -272 0
-5 1 -272 0
-5 -1 272 0
6 1 414 0
6 -1 -414 0
-6 1 -414 0
-6 -1 414 0
7 1 464 0
7 -1 -464 0
-7 1 -464 0
-7 -1 464 0
9 8 192 0
9 -8 -192 0
-9 8 -192 0
-9 -8 192 0
10 8 309 0
10 -8 -309 0
-10 8 -309 0
-10 -8 309 0
11 8 315 0
11 -8 -315 0
-11 8 -315 0
-11 -8 315 0
12 8 334 0
12 -8 -334 0
-12 8 -334 0
-12 -8 334 0
13 8 345 0
13 -8 -345 0
-13 8 -345 0
-13 -8 345 0
14 8 378 0
14 -8 -378 0
-14 8 -378 0
-14 -8 378 0
15 8 392 0
15 -8 -392 0
-15 8 -392 0
-15 -8 392 0
16 8 402 0
16 -8 -402 0
-16 8 -402 0
-16 -8 402 0
17 8 446 0
17 -8 -446 0
-17 8 -446 0
-17 -8 446 0
19 18 31 0
19 -18 -31 0
-19 18 -31 0
-19 -18 31 0
20 18 47 0
20 -18 -47 0
-20 18 -47 0
-20 -18 47 0
21 18 106 0
21 -18 -106 0
-21 18 -106 0
-21 -18 106 0
22 18 116 0
22 -18 -116 0
-22 18 -116 0
-22 -18 116 0
23 18 217 0
23 -18 -217 0
-23 18 -217 0
-23 -18 217 0
24 18 220 0
24 -18 -220 0
-24 18 -220 0
-24 -18 220 0
25 18 244 0
25 -18 -244 0
-25 18 -244 0
-25 -18 244 0
26 18 351 0
26 -18 -351 0
-26 18 -351 0
-26 -18 351 0
27 18 386 0
27 -18 -386 0
-27 18 -386 0
-27 -18 386 0
28 18 402 0
28 -18 -402 0
-28 18 -402 0
-28 -18 402 0
29 18 438 0
29 -18 -438 0
-29 18 -438 0
-29 -18 438 0
30 18 465 0
30 -18 -465 0
-30 18 -465 0
-30 -18 465 0
32 31 86 0
32 -31 -86 0
-32 31 -86 0
-32 -31 86 0
33 31 99 0
33 -31 -99 0
-33 31 -99 0
-33 -31 99 0
34 31 187 0
34 -31 -187 0
-34 31 -187 0
-34 -31 187 0
35 31 272 0
35 -31 -272 0
-35 31 -272 0
-35 -31 272 0
36 31 280 0
36 -31 -280 0
-36 31 -280 0
-36 -31 280 0
37 31 340 0
37 -31 -340 0
-37 31 -340 0
-37 -31 340 0
38 31 411 0
38 -31 -411 0
-38 31 -411 0
-38 -31 411 0
39 31 414 0
39 -31 -414 0
-39 31 -414 0
-39 -31 414 0
40 31 425 0
40 -31 -425 0
-40 31 -425 0
-40 -31 425 0
41 31 449 0
41 -31 -449 0
-41 31 -449 0
-41 -31 449 0
42 31 455 0
42 -31 -455 0
-42 31 -455 0
-42 -31 455 0
43 31 461 0
43 -31 -461 0
-43 31 -461 0
-43 -31 461 0
44 31 463 0
44 -31 -463 0
-44 31 -463 0
-44 -31 463 0
45 31 466 0
45 -31 -466 0
-45 31 -466 0
-45 -31 466 0
46 31 469 0
46 -31 -469 0
-46 31 -469 0
-46 -31 469 0
48 47 59 0
48 -47 -59 0
-48 47 -59 0
-48 -47 59 0
49 47 192 0
49 -47 -192 0
-49 47 -192 0
-49 -47 192 0
50 47 208 0
50 -47 -208 0
-50 47 -208 0
-50 -47 208 0
51 47 272 0
51 -47 -272 0
-51 47 -272 0
-51 -47 272 0
52 47 280 0
52 -47 -280 0
-52 47 -280 0
-52 -47 280 0
53 47 326 0
53 -47 -326 0
-53 47 -326 0
-53 -47 326 0
54 47 404 0
54 -47 -404 0
-54 47 -404 0
-54 -47 404 0
55 47 416 0
55 -47 -416 0
-55 47 -416 0
-55 -47 416 0
56 47 449 0
56 -47 -449 0
-56 47 -449 0
-56 -47 449 0
57 47 466 0
57 -47 -466 0
-57 47 -466 0
-57 -47 466 0
58 47 468 0
58 -47 -468 0
-58 47 -468 0
-58 -47 468 0
60 59 192 0
60 -59 -192 0
-60 59 -192 0
-60 -59 192 0
61 59 241 0
61 -59 -241 0
-61 59 -241 0
-61 -59 241 0
62 59 322 0
62 -59 -322 0
-62 59 -322 0
-62 -59 322 0
63 59 356 0
63 -59 -356 0
-63 59 -356 0
-63 -59 356 0
64 59 364 0
64 -59 -364 0
-64 59 -364 0
-64 -59 364 0
65 59 402 0
65 -59 -402 0
-65 59 -402 0
-65 -59 402 0
66 59 462 0
66 -59 -462 0
-66 59 -462 0
-66 -59 462 0
68 67 158 0
68 -67 -158 0
-68 67 -158 0
-68 -67 158 0
69 67 241 0
69 -67 -241 0
-69 67 -241 0
-69 -67 241 0
70 67 286 0
70 -67 -286 0
-70 67 -286 0
-70 -67 286 0
71 67 327 0
71 -67 -327 0
-71 67 -327 0
-71 -67 327 0
72 67 372 0
72 -67 -372 0
-72 67 -372 0
-72 -67 372 0
73 67 409 0
73 -67 -409 0
-73 67 -409 0
-73 -67 409 0
74 67 416 0
74 -67 -416 0
-74 67 -416 0
-74 -67 416 0
75 67 446 0
75 -67 -446 0
-75 67 -446 0
-75 -67 446 0
76 67 449 0
76 -67 -449 0
-76 67 -449 0
-76 -67 449 0
78 77 158 0
78 -77 -158 0
-78 77 -158 0
-78 -77 158 0
79 77 217 0
79 -77 -217 0
-79 77 -217 0
-79 -77 217 0
80 77 252 0
80 -77 -252 0
-80 77 -252 0
-80 -77 252 0
81 77 372 0
81 -77 -372 0
-81 77 -372 0
-81 -77 372 0
82 77 449 0
82 -77 -449 0
-82 77 -449 0
-82 -77 449 0
83 77 455 0
83 -77 -455 0
-83 77 -455 0
-83 -77 455 0
84 77 466 0
84 -77 -466 0
-84 77 -466 0
-84 -77 466 0
85 77 468 0
85 -77 -468 0
-85 77 -468 0
-85 -77 468 0
87 86 116 0
87 -86 -116 0
-87 86 -116 0
-87 -86 116 0
88 86 128 0
88 -86 -128 0
-88 86 -128 0
-88 -86 128 0
89 86 217 0
89 -86 -217 0
-89 86 -217 0
-89 -86 217 0
90 86 231 0
90 -86 -231 0
-90 86 -231 0
-90 -86 231 0
91 86 263 0
91 -86 -263 0
-91 86 -263 0
-91 -86 263 0
92 86 294 0
92 -86 -294 0
-92 86 -294 0
-92 -86 294 0
93 86 351 0
93 -86 -351 0
-93 86 -351 0
-93 -86 351 0
94 86 372 0
94 -86 -372 0
-94 86 -372 0
-94 -86 372 0
95 86 390 0
95 -86 -390 0
-95 86 -390 0
-95 -86 390 0
96 86 414 0
96 -86 -414 0
-96 86 -414 0
-96 -86 414 0
97 86 433 0
97 -86 -433 0
-97 86 -433 0
-97 -86 433 0
98 86 447 0
98 -86 -447 0
-98 86 -447 0
-98 -86 447 0
100 99 169 0
100 -99 -169 0
-100 99 -169 0
-100 -99 169 0
101 99 263 0
101 -99 -263 0
-101 99 -263 0
-101 -99 263 0
102 99 309 0
102 -99 -309 0
-102 99 -309 0
-102 -99 309 0
103 99 429 0
103 -99 -429 0
-103 99 -429 0
-103 -99 429 0
104 99 449 0
104 -99 -449 0
-104 99 -449 0
-104 -99 449 0
105 99 453 0
105 -99 -453 0
-105 99 -453 0
-105 -99 453 0
107 106 158 0
107 -106 -158 0
-107 106 -158 0
-107 -106 158 0
108 106 217 0
108 -106 -217 0
-108 106 -217 0
-108 -106 217 0
109 106 315 0
109 -106 -315 0
-109 106 -315 0
-109 -106 315 0
110 106 390 0
110 -106 -390 0
-110 106 -390 0
-110 -106 390 0
111 106 414 0
111 -106 -414 0
-111 106 -414 0
-111 -106 414 0
112 106 429 0
112 -106 -429 0
-112 106 -429 0
-112 -106 429 0
113 106 452 0
113 -106 -452 0
-113 106 -452 0
-113 -106 452 0
114 106 460 0
114 -106 -460 0
-114 106 -460 0
-114 -106 460 0
115 106 462 0
115 -106 -462 0
-115 106 -462 0
-115 -106 462 0
117 116 208 0
117 -116 -208 0
-117 116 -208 0
-117 -116 208 0
118 116 244 0
118 -116 -244 0
-118 116 -244 0
-118 -116 244 0
119 116 326 0
119 -116 -326 0
-119 116 -326 0
-119 -116 326 0
120 116 372 0
120 -116 -372 0
-120 116 -372 0
-120 -116 372 0
121 116 390 0
121 -116 -390 0
-121 116 -390 0
-121 -116 390 0
122 116 404 0
122 -116 -404 0
-122 116 -404 0
-122 -116 404 0
123 116 407 0
123 -116 -407 0
-123 116 -407 0
-123 -116 407 0
124 116 449 0
124 -116 -449 0
-124 116 -449 0
-124 -116 449 0
125 116 460 0
125 -116 -460 0
-125 116 -460 0
-125 -116 460 0
126 116 461 0
126 -116 -461 0
-126 116 -461 0
-126 -116 461 0
127 116 469 0
127 -116 -469 0
-127 116 -469 0
-127 -116 469 0
129 128 217 0
129 -128 -217 0
-129 128 -217 0
-129 -128 217 0
130 128 351 0
130 -128 -351 0
-130 128 -351 0
-130 -128 351 0
131 128 356 0
131 -128 -356 0
-131 128 -356 0
-131 -128 356 0
132 128 390 0
132 -128 -390 0
-132 128 -390 0
-132 -128 390 0
133 128 409 0
133 -128 -409 0
-133 128 -409 0
-133 -128 409 0
134 128 431 0
134 -128 -431 0
-134 128 -431 0
-134 -128 431 0
136 135 241 0
136 -135 -241 0
-136 135 -241 0
-136 -135 241 0
137 135 294 0
137 -135 -294 0
-137 135 -294 0
-137 -135 294 0
138 135 433 0
138 -135 -433 0
-138 135 -433 0
-138 -135 433 0
139 135 443 0
139 -135 -443 0
-139 135 -443 0
-139 -135 443 0
141 140 182 0
141 -140 -182 0
-141 140 -182 0
-141 -140 182 0
142 140 192 0
142 -140 -192 0
-142 140 -192 0
-142 -140 192 0
143 140 241 0
143 -140 -241 0
-143 140 -241 0
-143 -140 241 0
144 140 272 0
144 -140 -272 0
-144 140 -272 0
-144 -140 272 0
145 140 315 0
145 -140 -315 0
-145 140 -315 0
-145 -140 315 0
146 140 378 0
146 -140 -378 0
-146 140 -378 0
-146 -140 378 0
147 140 433 0
147 -140 -433 0
-147 140 -433 0
-147 -140 433 0
148 140 460 0
148 -140 -460 0
-148 140 -460 0
-148 -140 460 0
149 140 469 0
149 -140 -469 0
-149 140 -469 0
-149 -140 469 0
151 150 272 0
151 -150 -272 0
-151 150 -272 0
-151 -150 272 0
152 150 290 0
152 -150 -290 0
-152 150 -290 0
-152 -150 290 0
153 150 356 0
153 -150 -356 0
-153 150 -356 0
-153 -150 356 0
154 150 364 0
154 -150 -364 0
-154 150 -364 0
-154 -150 364 0
155 150 390 0
155 -150 -390 0
-155 150 -390 0
-155 -150 390 0
156 150 402 0
156 -150 -402 0
-156 150 -402 0
-156 -150 402 0
157 150 453 0
157 -150 -453 0
-157 150 -453 0
-157 -150 453 0
159 158 169 0
159 -158 -169 0
-159 158 -169 0
-159 -158 169 0
160 158 208 0
160 -158 -208 0
-160 158 -208 0
-160 -158 208 0
161 158 299 0
161 -158 -299 0
-161 158 -299 0
-161 -158 299 0
162 158 356 0
162 -158 -356 0
-162 158 -356 0
-162 -158 356 0
163 158 374 0
163 -158 -374 0
-163 158 -374 0
-163 -158 374 0
164 158 407 0
164 -158 -407 0
-164 158 -407 0
-164 -158 407 0
165 158 416 0
165 -158 -416 0
-165 158 -416 0
-165 -158 416 0
166 158 431 0
166 -158 -431 0
-166 158 -431 0
-166 -158 431 0
167 158 433 0
167 -158 -433 0
-167 158 -433 0
-167 -158 433 0
168 158 447 0
168 -158 -447 0
-168 158 -447 0
-168 -158 447 0
170 169 231 0
170 -169 -231 0
-170 169 -231 0
-170 -169 231 0
171 169 315 0
171 -169 -315 0
-171 169 -315 0
-171 -169 315 0
172 169 327 0
172 -169 -327 0
-172 169 -327 0
-172 -169 327 0
173 169 356 0
173 -169 -356 0
-173 169 -356 0
-173 -169 356 0
174 169 378 0
174 -169 -378 0
-174 169 -378 0
-174 -169 378 0
175 169 386 0
175 -169 -386 0
-175 169 -386 0
-175 -169 386 0
176 169 390 0
176 -169 -390 0
-176 169 -390 0
-176 -169 390 0
177 169 392 0
177 -169 -392 0
-177 169 -392 0
-177 -169 392 0
178 169 402 0
178 -169 -402 0
-178 169 -402 0
-178 -169 402 0
179 169 431 0
179 -169 -431 0
-179 169 -431 0
-179 -169 431 0
180 169 443 0
180 -169 -443 0
-180 169 -443 0
-180 -169 443 0
181 169 462 0
181 -169 -462 0
-181 169 -462 0
-181 -169 462 0
183 182 294 0
183 -182 -294 0
-183 182 -294 0
-183 -182 294 0
184 182 345 0
184 -182 -345 0
-184 182 -345 0
-184 -182 345 0
185 182 364 0
185 -182 -364 0
-185 182 -364 0
-185 -182 364 0
186 182 457 0
186 -182 -457 0
-186 182 -457 0
-186 -182 457 0
188 187 263 0
188 -187 -263 0
-188 187 -263 0
-188 -187 263 0
189 187 356 0
189 -187 -356 0
-189 187 -356 0
-189 -187 356 0
190 187 420 0
190 -187 -420 0
-190 187 -420 0
-190 -187 420 0
191 187 466 0
191 -187 -466 0
-191 187 -466 0
-191 -187 466 0
193 192 252 0
193 -192 -252 0
-193 192 -252 0
-193 -192 252 0
194 192 334 0
194 -192 -334 0
-194 192 -334 0
-194 -192 334 0
195 192 345 0
195 -192 -345 0
-195 192 -345 0
-195 -192 345 0
196 192 351 0
196 -192 -351 0
-196 192 -351 0
-196 -192 351 0
197 192 372 0
197 -192 -372 0
-197 192 -372 0
-197 -192 372 0
198 192 452 0
198 -192 -452 0
-198 192 -452 0
-198 -192 452 0
199 192 453 0
199 -192 -453 0
-199 192 -453 0
-199 -192 453 0
200 192 462 0
200 -192 -462 0
-200 192 -462 0
-200 -192 462 0
201 192 469 0
201 -192 -469 0
-201 192 -469 0
-201 -192 469 0
203 202 231 0
203 -202 -231 0
-203 202 -231 0
-203 -202 231 0
204 202 299 0
204 -202 -299 0
-204 202 -299 0
-204 -202 299 0
205 202 447 0
205 -202 -447 0
-205 202 -447 0
-205 -202 447 0
206 202 455 0
206 -202 -455 0
-206 202 -455 0
-206 -202 455 0
207 202 464 0
207 -202 -464 0
-207 202 -464 0
-207 -202 464 0
209 208 263 0
209 -208 -263 0
-209 208 -263 0
-209 -208 263 0
210 208 272 0
210 -208 -272 0
-210 208 -272 0
-210 -208 272 0
211 208 290 0
211 -208 -290 0
-211 208 -290 0
-211 -208 290 0
212 208 392 0
212 -208 -392 0
-212 208 -392 0
-212 -208 392 0
213 208 407 0
213 -208 -407 0
-213 208 -407 0
-213 -208 407 0
214 208 433 0
214 -208 -433 0
-214 208 -433 0
-214 -208 433 0
215 208 453 0
215 -208 -453 0
-215 208 -453 0
-215 -208 453 0
216 208 465 0
216 -208 -465 0
-216 208 -465 0
-216 -208 465 0
218 217 345 0
218 -217 -345 0
-218 217 -345 0
-218 -217 345 0
219 217 433 0
219 -217 -433 0
-219 217 -433 0
-219 -217 433 0
221 220 280 0
221 -220 -280 0
-221 220 -280 0
-221 -220 280 0
222 220 315 0
222 -220 -315 0
-222 220 -315 0
-222 -220 315 0
223 220 364 0
223 -220 -364 0
-223 220 -364 0
-223 -220 364 0
224 220 395 0
224 -220 -395 0
-224 220 -395 0
-224 -220 395 0
225 220 464 0
225 -220 -464 0
-225 220 -464 0
-225 -220 464 0
227 226 411 0
227 -226 -411 0
-227 226 -411 0
-227 -226 411 0
228 226 433 0
228 -226 -433 0
-228 226 -433 0
-228 -226 433 0
229 226 446 0
229 -226 -446 0
-229 226 -446 0
-229 -226 446 0
230 226 449 0
230 -226 -449 0
-230 226 -449 0
-230 -226 449 0
232 231 241 0
232 -231 -241 0
-232 231 -241 0
-232 -231 241 0
233 231 272 0
233 -231 -272 0
-233 231 -272 0
-233 -231 272 0
234 231 294 0
234 -231 -294 0
-234 231 -294 0
-234 -231 294 0
235 231 322 0
235 -231 -322 0
-235 231 -322 0
-235 -231 322 0
236 231 390 0
236 -231 -390 0
-236 231 -390 0
-236 -231 390 0
237 231 426 0
237 -231 -426 0
-237 231 -426 0
-237 -231 426 0
238 231 443 0
238 -231 -443 0
-238 231 -443 0
-238 -231 443 0
239 231 463 0
239 -231 -463 0
-239 231 -463 0
-239 -231 463 0
240 231 464 0
240 -231 -464 0
-240 231 -464 0
-240 -231 464 0
242 241 402 0
242 -241 -402 0
-242 241 -402 0
-242 -241 402 0
243 241 469 0
243 -241 -469 0
-243 241 -469 0
-243 -241 469 0
245 244 263 0
245 -244 -263 0
-245 244 -263 0
-245 -244 263 0
246 244 395 0
246 -244 -395 0
-246 244 -395 0
-246 -244 395 0
247 244 409 0
247 -244 -409 0
-247 244 -409 0
-247 -244 409 0
248 244 426 0
248 -244 -426 0
-248 244 -426 0
-248 -244 426 0
249 244 433 0
249 -244 -433 0
-249 244 -433 0
-249 -244 433 0
250 244 463 0
250 -244 -463 0
-250 244 -463 0
-250 -244 463 0
251 244 464 0
251 -244 -464 0
-251 244 -464 0
-251 -244 464 0
253 252 322 0
253 -252 -322 0
-253 252 -322 0
-253 -252 322 0
254 252 326 0
254 -252 -326 0
-254 252 -326 0
-254 -252 326 0
255 252 438 0
255 -252 -438 0
-255 252 -438 0
-255 -252 438 0
257 256 290 0
257 -256 -290 0
-257 256 -290 0
-257 -256 290 0
258 256 446 0
258 -256 -446 0
-258 256 -446 0
-258 -256 446 0
259 256 453 0
259 -256 -453 0
-259 256 -453 0
-259 -256 453 0
260 256 455 0
260 -256 -455 0
-260 256 -455 0
-260 -256 455 0
261 256 457 0
261 -256 -457 0
-261 256 -457 0
-261 -256 457 0
262 256 460 0
262 -256 -460 0
-262 256 -460 0
-262 -256 460 0
264 263 272 0
264 -263 -272 0
-264 263 -272 0
-264 -263 272 0
265 263 294 0
265 -263 -294 0
-265 263 -294 0
-265 -263 294 0
266 263 345 0
266 -263 -345 0
-266 263 -345 0
-266 -263 345 0
267 263 356 0
267 -263 -356 0
-267 263 -356 0
-267 -263 356 0
268 263 372 0
268 -263 -372 0
-268 263 -372 0
-268 -263 372 0
269 263 431 0
269 -263 -431 0
-269 263 -431 0
-269 -263 431 0
270 263 438 0
270 -263 -438 0
-270 263 -438 0
-270 -263 438 0
271 263 469 0
271 -263 -469 0
-271 263 -469 0
-271 -263 469 0
273 272 286 0
273 -272 -286 0
-273 272 -286 0
-273 -272 286 0
274 272 290 0
274 -272 -290 0
-274 272 -290 0
-274 -272 290 0
275 272 398 0
275 -272 -398 0
-275 272 -398 0
-275 -272 398 0
276 272 402 0
276 -272 -402 0
-276 272 -402 0
-276 -272 402 0
277 272 414 0
277 -272 -414 0
-277 272 -414 0
-277 -272 414 0
278 272 429 0
278 -272 -429 0
-278 272 -429 0
-278 -272 429 0
279 272 466 0
279 -272 -466 0
-279 272 -466 0
-279 -272 466 0
281 280 409 0
281 -280 -409 0
-281 280 -409 0
-281 -280 409 0
282 280 414 0
282 -280 -414 0
-282 280 -414 0
-282 -280 414 0
283 280 425 0
283 -280 -425 0
-283 280 -425 0
-283 -280 425 0
284 280 457 0
284 -280 -457 0
-284 280 -457 0
-284 -280 457 0
285 280 469 0
285 -280 -469 0
-285 280 -469 0
-285 -280 469 0
287 286 309 0
287 -286 -309 0
-287 286 -309 0
-287 -286 309 0
288 286 378 0
288 -286 -378 0
-288 286 -378 0
-288 -286 378 0
289 286 414 0
289 -286 -414 0
-289 286 -414 0
-289 -286 414 0
291 290 416 0
291 -290 -416 0
-291 290 -416 0
-291 -290 416 0
292 290 447 0
292 -290 -447 0
-292 290 -447 0
-292 -290 447 0
293 290 466 0
293 -290 -466 0
-293 290 -466 0
-293 -290 466 0
295 294 334 0
295 -294 -334 0
-295 294 -334 0
-295 -294 334 0
296 294 426 0
296 -294 -426 0
-296 294 -426 0
-296 -294 426 0
297 294 431 0
297 -294 -431 0
-297 294 -431 0
-297 -294 431 0
298 294 457 0
298 -294 -457 0
-298 294 -457 0
-298 -294 457 0
300 299 340 0
300 -299 -340 0
-300 299 -340 0
-300 -299 340 0
301 299 390 0
301 -299 -390 0
-301 299 -390 0
-301 -299 390 0
302 299 392 0
302 -299 -392 0
-302 299 -392 0
-302 -299 392 0
303 299 398 0
303 -299 -398 0
-303 299 -398 0
-303 -299 398 0
304 299 416 0
304 -299 -416 0
-304 299 -416 0
-304 -299 416 0
305 299 429 0
305 -299 -429 0
-305 299 -429 0
-305 -299 429 0
306 299 443 0
306 -299 -443 0
-306 299 -443 0
-306 -299 443 0
307 299 452 0
307 -299 -452 0
-307 299 -452 0
-307 -299 452 0
308 299 466 0
308 -299 -466 0
-308 299 -466 0
-308 -299 466 0
310 309 378 0
310 -309 -378 0
-310 309 -378 0
-310 -309 378 0
311 309 407 0
311 -309 -407 0
-311 309 -407 0
-311 -309 407 0
312 309 431 0
312 -309 -431 0
-312 309 -431 0
-312 -309 431 0
313 309 449 0
313 -309 -449 0
-313 309 -449 0
-313 -309 449 0
314 309 468 0
314 -309 -468 0
-314 309 -468 0
-314 -309 468 0
316 315 351 0
316 -315 -351 0
-316 315 -351 0
-316 -315 351 0
317 315 378 0
317 -315 -378 0
-317 315 -378 0
-317 -315 378 0
318 315 402 0
318 -315 -402 0
-318 315 -402 0
-318 -315 402 0
319 315 407 0
319 -315 -407 0
-319 315 -407 0
-319 -315 407 0
320 315 426 0
320 -315 -426 0
-320 315 -426 0
-320 -315 426 0
321 315 469 0
321 -315 -469 0
-321 315 -469 0
-321 -315 469 0
323 322 372 0
323 -322 -372 0
-323 322 -372 0
-323 -322 372 0
324 322 446 0
324 -322 -446 0
-324 322 -446 0
-324 -322 446 0
325 322 455 0
325 -322 -455 0
-325 322 -455 0
-325 -322 455 0
328 327 351 0
328 -327 -351 0
-328 327 -351 0
-328 -327 351 0
329 327 364 0
329 -327 -364 0
-329 327 -364 0
-329 -327 364 0
330 327 372 0
330 -327 -372 0
-330 327 -372 0
-330 -327 372 0
331 327 390 0
331 -327 -390 0
-331 327 -390 0
-331 -327 390 0
332 327 452 0
332 -327 -452 0
-332 327 -452 0
-332 -327 452 0
333 327 466 0
333 -327 -466 0
-333 327 -466 0
-333 -327 466 0
335 334 340 0
335 -334 -340 0
-335 334 -340 0
-335 -334 340 0
336 334 378 0
336 -334 -378 0
-336 334 -378 0
-336 -334 378 0
337 334 423 0
337 -334 -423 0
-337 334 -423 0
-337 -334 423 0
338 334 438 0
338 -334 -438 0
-338 334 -438 0
-338 -334 438 0
339 334 463 0
339 -334 -463 0
-339 334 -463 0
-339 -334 463 0
341 340 407 0
341 -340 -407 0
-341 340 -407 0
-341 -340 407 0
342 340 409 0
342 -340 -409 0
-342 340 -409 0
-342 -340 409 0
343 340 446 0
343 -340 -446 0
-343 340 -446 0
-343 -340 446 0
344 340 461 0
344 -340 -461 0
-344 340 -461 0
-344 -340 461 0
346 345 364 0
346 -345 -364 0
-346 345 -364 0
-346 -345 364 0
347 345 390 0
347 -345 -390 0
-347 345 -390 0
-347 -345 390 0
348 345 402 0
348 -345 -402 0
-348 345 -402 0
-348 -345 402 0
349 345 431 0
349 -345 -431 0
-349 345 -431 0
-349 -345 431 0
350 345 447 0
350 -345 -447 0
-350 345 -447 0
-350 -345 447 0
352 351 398 0
352 -351 -398 0
-352 351 -398 0
-352 -351 398 0
353 351 404 0
353 -351 -404 0
-353 351 -404 0
-353 -351 404 0
354 351 446 0
354 -351 -446 0
-354 351 -446 0
-354 -351 446 0
355 351 460 0
355 -351 -460 0
-355 351 -460 0
-355 -351 460 0
357 356 364 0
357 -356 -364 0
-357 356 -364 0
-357 -356 364 0
358 356 398 0
358 -356 -398 0
-358 356 -398 0
-358 -356 398 0
359 356 402 0
359 -356 -402 0
-359 356 -402 0
-359 -356 402 0
360 356 426 0
360 -356 -426 0
-360 356 -426 0
-360 -356 426 0
361 356 431 0
361 -356 -431 0
-361 356 -431 0
-361 -356 431 0
362 356 433 0
362 -356 -433 0
-362 356 -433 0
-362 -356 433 0
363 356 460 0
363 -356 -460 0
-363 356 -460 0
-363 -356 460 0
365 364 416 0
365 -364 -416 0
-365 364 -416 0
-365 -364 416 0
366 364 426 0
366 -364 -426 0
-366 364 -426 0
-366 -364 426 0
367 364 461 0
367 -364 -461 0
-367 364 -461 0
-367 -364 461 0
369 368 392 0
369 -368 -392 0
-369 368 -392 0
-369 -368 392 0
370 368 409 0
370 -368 -409 0
-370 368 -409 0
-370 -368 409 0
371 368 431 0
371 -368 -431 0
-371 368 -431 0
-371 -368 431 0
373 372 453 0
373 -372 -453 0
-373 372 -453 0
-373 -372 453 0
375 374 378 0
375 -374 -378 0
-375 374 -378 0
-375 -374 378 0
376 374 423 0
376 -374 -423 0
-376 374 -423 0
-376 -374 423 0
377 374 452 0
377 -374 -452 0
-377 374 -452 0
-377 -374 452 0
379 378 386 0
379 -378 -386 0
-379 378 -386 0
-379 -378 386 0
380 378 402 0
380 -378 -402 0
-380 378 -402 0
-380 -378 402 0
381 378 409 0
381 -378 -409 0
-381 378 -409 0
-381 -378 409 0
382 378 414 0
382 -378 -414 0
-382 378 -414 0
-382 -378 414 0
383 378 452 0
383 -378 -452 0
-383 378 -452 0
-383 -378 452 0
384 378 453 0
384 -378 -453 0
-384 378 -453 0
-384 -378 453 0
385 378 457 0
385 -378 -457 0
-385 378 -457 0
-385 -378 457 0
387 386 431 0
387 -386 -431 0
-387 386 -431 0
-387 -386 431 0
388 386 433 0
388 -386 -433 0
-388 386 -433 0
-388 -386 433 0
389 386 443 0
389 -386 -443 0
-389 386 -443 0
-389 -386 443 0
391 390 463 0
391 -390 -463 0
-391 390 -463 0
-391 -390 463 0
393 392 455 0
393 -392 -455 0
-393 392 -455 0
-393 -392 455 0
394 392 460 0
394 -392 -460 0
-394 392 -460 0
-394 -392 460 0
396 395 407 0
396 -395 -407 0
-396 395 -407 0
-396 -395 407 0
397 395 425 0
397 -395 -425 0
-397 395 -425 0
-397 -395 425 0
399 398 426 0
399 -398 -426 0
-399 398 -426 0
-399 -398 426 0
400 398 433 0
400 -398 -433 0
-400 398 -433 0
-400 -398 433 0
401 398 461 0
401 -398 -461 0
-401 398 -461 0
-401 -398 461 0
403 402 416 0
403 -402 -416 0
-403 402 -416 0
-403 -402 416 0
405 404 429 0
405 -404 -429 0
-405 404 -429 0
-405 -404 429 0
406 404 461 0
406 -404 -461 0
-406 404 -461 0
-406 -404 461 0
408 407 420 0
408 -407 -420 0
-408 407 -420 0
-408 -407 420 0
410 409 411 0
410 -409 -411 0
-410 409 -411 0
-410 -409 411 0
412 411 416 0
412 -411 -416 0
-412 411 -416 0
-412 -411 416 0
413 411 469 0
413 -411 -469 0
-413 411 -469 0
-413 -411 469 0
415 414 461 0
415 -414 -461 0
-415 414 -461 0
-415 -414 461 0
417 416 429 0
417 -416 -429 0
-417 416 -429 0
-417 -416 429 0
418 416 431 0
418 -416 -431 0
-418 416 -431 0
-418 -416 431 0
419 416 449 0
419 -416 -449 0
-419 416 -449 0
-419 -416 449 0
421 420 426 0
421 -420 -426 0
-421 420 -426 0
-421 -420 426 0
422 420 463 0
422 -420 -463 0
-422 420 -463 0
-422 -420 463 0
424 423 443 0
424 -423 -443 0
-424 423 -443 0
-424 -423 443 0
427 426 453 0
427 -426 -453 0
-427 426 -453 0
-427 -426 453 0
428 426 469 0
428 -426 -469 0
-428 426 -469 0
-428 -426 469 0
430 429 433 0
430 -429 -433 0
-430 429 -433 0
-430 -429 433 0
432 431 455 0
432 -431 -455 0
-432 431 -455 0
-432 -431 455 0
434 433 449 0
434 -433 -449 0
-434 433 -449 0
-434 -433 449 0
435 433 455 0
435 -433 -455 0
-435 433 -455 0
-435 -433 455 0
436 433 462 0
436 -433 -462 0
-436 433 -462 0
-436 -433 462 0
437 433 468 0
437 -433 -468 0
-437 433 -468 0
-437 -433 468 0
439 438 443 0
439 -438 -443 0
-439 438 -443 0
-439 -438 443 0
440 438 446 0
440 -438 -446 0
-440 438 -446 0
-440 -438 446 0
441 438 453 0
441 -438 -453 0
-441 438 -453 0
-441 -438 453 0
442 438 461 0
442 -438 -461 0
-442 438 -461 0
-442 -438 461 0
444 443 447 0
444 -443 -447 0
-444 443 -447 0
-444 -443 447 0
445 443 449 0
445 -443 -449 0
-445 443 -449 0
-445 -443 449 0
448 447 452 0
448 -447 -452 0
-448 447 -452 0
-448 -447 452 0
450 449 461 0
450 -449 -461 0
-450 449 -461 0
-450 -449 461 0
451 449 468 0
451 -449 -468 0
-451 449 -468 0
-451 -449 468 0
454 453 465 0
454 -453 -465 0
-454 453 -465 0
-454 -453 465 0
456 455 457 0
456 -455 -457 0
-456 455 -457 0
-456 -455 457 0
458 457 462 0
458 -457 -462 0
-458 457 -462 0
-458 -457 462 0
459 457 465 0
459 -457 -465 0
-459 457 -465 0
-459 -457 465 0
467 466 469 0
467 -466 -469 0
-467 466 -469 0
-467 -466 469 0
